177	32	4	146	
10	10	10	10

0	0	0	0	0	0	4	1	28	29	30
1	1	0	1	2	6	1	2
2	4	1	5	0	4	1	3
3	5	4	2	0	4	1	4
4	3	3	0	4	10	2	27	5
5	4	0	4	3	10	1	6
6	5	5	0	6	8	1	7
7	0	4	5	6	8	3	26	25	8
8	0	4	3	2	6	1	9
9	4	0	4	5	8	1	10
10	0	3	5	3	10	1	11
11	0	6	3	5	6	1	12
12	0	5	8	2	8	1	13
13	4	4	2	0	9	1	14
14	0	4	1	1	2	1	15
15	3	0	6	4	1	1	16
16	3	0	7	4	6	1	17
17	0	4	4	3	6	1	18
18	6	0	4	5	1	1	19
19	6	3	0	3	2	1	20
20	0	4	2	3	5	1	21
21	0	5	3	4	8	1	22
22	0	4	1	8	6	1	23
23	0	6	5	3	8	1	24
24	1	4	0	5	4	1	31
25	4	0	2	2	3	1	31
26	5	3	0	4	3	1	31
27	5	3	8	0	8	1	31
28	5	2	0	2	10	1	31
29	0	4	4	10	2	1	31
30	0	7	7	5	5	1	31
31	0	0	0	0	0	0
